309
Generated XYZ file with optional properties
Cu 0.000000 0.000000 0.000000 7.000000
Cu 2.171418 0.000000 -1.342010 8.000000
Cu 2.171418 0.000000 1.342010 8.000000
Cu -2.171418 0.000000 -1.342010 8.000000
Cu -2.171418 0.000000 1.342010 8.000000
Cu -1.342010 2.171418 0.000000 8.000000
Cu 1.342010 2.171418 0.000000 8.000000
Cu -1.342010 -2.171418 0.000000 8.000000
Cu 1.342010 -2.171418 0.000000 8.000000
Cu 0.000000 -1.342010 2.171418 8.000000
Cu 0.000000 1.342010 2.171418 8.000000
Cu 0.000000 -1.342010 -2.171418 8.000000
Cu 0.000000 1.342010 -2.171418 8.000000
Cu 4.342837 0.000000 -2.684021 8.000000
Cu 4.342837 0.000000 0.000000 6.000000
Cu 4.342837 0.000000 2.684021 8.000000
Cu -4.342837 0.000000 -2.684021 8.000000
Cu -4.342837 0.000000 0.000000 6.000000
Cu -4.342837 0.000000 2.684021 8.000000
Cu -2.684021 4.342837 0.000000 8.000000
Cu 0.000000 4.342837 0.000000 6.000000
Cu 2.684021 4.342837 0.000000 8.000000
Cu -2.684021 -4.342837 0.000000 8.000000
Cu 0.000000 -4.342837 0.000000 6.000000
Cu 2.684021 -4.342837 0.000000 8.000000
Cu 0.000000 -2.684021 4.342837 8.000000
Cu 0.000000 0.000000 4.342837 6.000000
Cu 0.000000 2.684021 4.342837 8.000000
Cu 0.000000 -2.684021 -4.342837 8.000000
Cu 0.000000 0.000000 -4.342837 6.000000
Cu 0.000000 2.684021 -4.342837 8.000000
Cu 2.171418 -1.342010 3.513429 6.000000
Cu 2.171418 1.342010 3.513429 6.000000
Cu 2.171418 -1.342010 -3.513429 6.000000
Cu 2.171418 1.342010 -3.513429 6.000000
Cu -2.171418 -1.342010 3.513429 6.000000
Cu -2.171418 1.342010 3.513429 6.000000
Cu -2.171418 -1.342010 -3.513429 6.000000
Cu -2.171418 1.342010 -3.513429 6.000000
Cu 3.513429 2.171418 -1.342010 6.000000
Cu 3.513429 2.171418 1.342010 6.000000
Cu -3.513429 2.171418 -1.342010 6.000000
Cu -3.513429 2.171418 1.342010 6.000000
Cu 3.513429 -2.171418 -1.342010 6.000000
Cu 3.513429 -2.171418 1.342010 6.000000
Cu -3.513429 -2.171418 -1.342010 6.000000
Cu -3.513429 -2.171418 1.342010 6.000000
Cu -1.342010 3.513429 2.171418 6.000000
Cu 1.342010 3.513429 2.171418 6.000000
Cu -1.342010 -3.513429 2.171418 6.000000
Cu 1.342010 -3.513429 2.171418 6.000000
Cu -1.342010 3.513429 -2.171418 6.000000
Cu 1.342010 3.513429 -2.171418 6.000000
Cu -1.342010 -3.513429 -2.171418 6.000000
Cu 1.342010 -3.513429 -2.171418 6.000000
Cu 6.514255 0.000000 -4.026031 8.000000
Cu 6.514255 0.000000 -1.342010 6.000000
Cu 6.514255 0.000000 1.342010 6.000000
Cu 6.514255 0.000000 4.026031 8.000000
Cu -6.514255 0.000000 -4.026031 8.000000
Cu -6.514255 0.000000 -1.342010 6.000000
Cu -6.514255 0.000000 1.342010 6.000000
Cu -6.514255 0.000000 4.026031 8.000000
Cu -4.026031 6.514255 0.000000 8.000000
Cu -1.342010 6.514255 0.000000 6.000000
Cu 1.342010 6.514255 0.000000 6.000000
Cu 4.026031 6.514255 0.000000 8.000000
Cu -4.026031 -6.514255 0.000000 8.000000
Cu -1.342010 -6.514255 0.000000 6.000000
Cu 1.342010 -6.514255 0.000000 6.000000
Cu 4.026031 -6.514255 0.000000 8.000000
Cu 0.000000 -4.026031 6.514255 8.000000
Cu 0.000000 -1.342010 6.514255 6.000000
Cu 0.000000 1.342010 6.514255 6.000000
Cu 0.000000 4.026031 6.514255 8.000000
Cu 0.000000 -4.026031 -6.514255 8.000000
Cu 0.000000 -1.342010 -6.514255 6.000000
Cu 0.000000 1.342010 -6.514255 6.000000
Cu 0.000000 4.026031 -6.514255 8.000000
Cu 4.342837 -1.342010 4.855439 6.000000
Cu 2.171418 -2.684021 5.684847 6.000000
Cu 4.342837 1.342010 4.855439 6.000000
Cu 2.171418 0.000000 5.684847 5.000000
Cu 2.171418 2.684021 5.684847 6.000000
Cu 4.342837 -1.342010 -4.855439 6.000000
Cu 2.171418 -2.684021 -5.684847 6.000000
Cu 4.342837 1.342010 -4.855439 6.000000
Cu 2.171418 0.000000 -5.684847 5.000000
Cu 2.171418 2.684021 -5.684847 6.000000
Cu -4.342837 -1.342010 4.855439 6.000000
Cu -2.171418 -2.684021 5.684847 6.000000
Cu -4.342837 1.342010 4.855439 6.000000
Cu -2.171418 0.000000 5.684847 5.000000
Cu -2.171418 2.684021 5.684847 6.000000
Cu -4.342837 -1.342010 -4.855439 6.000000
Cu -2.171418 -2.684021 -5.684847 6.000000
Cu -4.342837 1.342010 -4.855439 6.000000
Cu -2.171418 0.000000 -5.684847 5.000000
Cu -2.171418 2.684021 -5.684847 6.000000
Cu 4.855439 4.342837 -1.342010 6.000000
Cu 5.684847 2.171418 -2.684021 6.000000
Cu 4.855439 4.342837 1.342010 6.000000
Cu 5.684847 2.171418 0.000000 5.000000
Cu 5.684847 2.171418 2.684021 6.000000
Cu -4.855439 4.342837 -1.342010 6.000000
Cu -5.684847 2.171418 -2.684021 6.000000
Cu -4.855439 4.342837 1.342010 6.000000
Cu -5.684847 2.171418 0.000000 5.000000
Cu -5.684847 2.171418 2.684021 6.000000
Cu 4.855439 -4.342837 -1.342010 6.000000
Cu 5.684847 -2.171418 -2.684021 6.000000
Cu 4.855439 -4.342837 1.342010 6.000000
Cu 5.684847 -2.171418 0.000000 5.000000
Cu 5.684847 -2.171418 2.684021 6.000000
Cu -4.855439 -4.342837 -1.342010 6.000000
Cu -5.684847 -2.171418 -2.684021 6.000000
Cu -4.855439 -4.342837 1.342010 6.000000
Cu -5.684847 -2.171418 0.000000 5.000000
Cu -5.684847 -2.171418 2.684021 6.000000
Cu -1.342010 4.855439 4.342837 6.000000
Cu -2.684021 5.684847 2.171418 6.000000
Cu 1.342010 4.855439 4.342837 6.000000
Cu 0.000000 5.684847 2.171418 5.000000
Cu 2.684021 5.684847 2.171418 6.000000
Cu -1.342010 -4.855439 4.342837 6.000000
Cu -2.684021 -5.684847 2.171418 6.000000
Cu 1.342010 -4.855439 4.342837 6.000000
Cu 0.000000 -5.684847 2.171418 5.000000
Cu 2.684021 -5.684847 2.171418 6.000000
Cu -1.342010 4.855439 -4.342837 6.000000
Cu -2.684021 5.684847 -2.171418 6.000000
Cu 1.342010 4.855439 -4.342837 6.000000
Cu 0.000000 5.684847 -2.171418 5.000000
Cu 2.684021 5.684847 -2.171418 6.000000
Cu -1.342010 -4.855439 -4.342837 6.000000
Cu -2.684021 -5.684847 -2.171418 6.000000
Cu 1.342010 -4.855439 -4.342837 6.000000
Cu 0.000000 -5.684847 -2.171418 5.000000
Cu 2.684021 -5.684847 -2.171418 6.000000
Cu 3.513429 -3.513429 3.513429 5.000000
Cu 3.513429 3.513429 3.513429 5.000000
Cu 3.513429 -3.513429 -3.513429 5.000000
Cu 3.513429 3.513429 -3.513429 5.000000
Cu -3.513429 -3.513429 3.513429 5.000000
Cu -3.513429 3.513429 3.513429 5.000000
Cu -3.513429 -3.513429 -3.513429 5.000000
Cu -3.513429 3.513429 -3.513429 5.000000
Cu 8.685674 0.000000 -5.368042 56.000000
Cu 8.685674 0.000000 -2.684021 39.000000
Cu 8.685674 0.000000 0.000000 39.000000
Cu 8.685674 0.000000 2.684021 39.000000
Cu 8.685674 0.000000 5.368042 56.000000
Cu -8.685674 0.000000 -5.368042 56.000000
Cu -8.685674 0.000000 -2.684021 39.000000
Cu -8.685674 0.000000 0.000000 39.000000
Cu -8.685674 0.000000 2.684021 39.000000
Cu -8.685674 0.000000 5.368042 56.000000
Cu -5.368042 8.685674 0.000000 56.000000
Cu -2.684021 8.685674 0.000000 39.000000
Cu 0.000000 8.685674 0.000000 39.000000
Cu 2.684021 8.685674 0.000000 39.000000
Cu 5.368042 8.685674 0.000000 56.000000
Cu -5.368042 -8.685674 0.000000 56.000000
Cu -2.684021 -8.685674 0.000000 39.000000
Cu 0.000000 -8.685674 0.000000 39.000000
Cu 2.684021 -8.685674 0.000000 39.000000
Cu 5.368042 -8.685674 0.000000 56.000000
Cu 0.000000 -5.368042 8.685674 56.000000
Cu 0.000000 -2.684021 8.685674 39.000000
Cu 0.000000 0.000000 8.685674 39.000000
Cu 0.000000 2.684021 8.685674 39.000000
Cu 0.000000 5.368042 8.685674 56.000000
Cu 0.000000 -5.368042 -8.685674 56.000000
Cu 0.000000 -2.684021 -8.685674 39.000000
Cu 0.000000 0.000000 -8.685674 39.000000
Cu 0.000000 2.684021 -8.685674 39.000000
Cu 0.000000 5.368042 -8.685674 56.000000
Cu 6.514255 -1.342010 6.197450 39.000000
Cu 4.342837 -2.684021 7.026858 39.000000
Cu 2.171418 -4.026031 7.856266 39.000000
Cu 6.514255 1.342010 6.197450 39.000000
Cu 4.342837 0.000000 7.026858 30.000000
Cu 2.171418 -1.342010 7.856266 30.000000
Cu 4.342837 2.684021 7.026858 39.000000
Cu 2.171418 1.342010 7.856266 30.000000
Cu 2.171418 4.026031 7.856266 39.000000
Cu 6.514255 -1.342010 -6.197450 39.000000
Cu 4.342837 -2.684021 -7.026858 39.000000
Cu 2.171418 -4.026031 -7.856266 39.000000
Cu 6.514255 1.342010 -6.197450 39.000000
Cu 4.342837 0.000000 -7.026858 30.000000
Cu 2.171418 -1.342010 -7.856266 30.000000
Cu 4.342837 2.684021 -7.026858 39.000000
Cu 2.171418 1.342010 -7.856266 30.000000
Cu 2.171418 4.026031 -7.856266 39.000000
Cu -6.514255 -1.342010 6.197450 39.000000
Cu -4.342837 -2.684021 7.026858 39.000000
Cu -2.171418 -4.026031 7.856266 39.000000
Cu -6.514255 1.342010 6.197450 39.000000
Cu -4.342837 0.000000 7.026858 30.000000
Cu -2.171418 -1.342010 7.856266 30.000000
Cu -4.342837 2.684021 7.026858 39.000000
Cu -2.171418 1.342010 7.856266 30.000000
Cu -2.171418 4.026031 7.856266 39.000000
Cu -6.514255 -1.342010 -6.197450 39.000000
Cu -4.342837 -2.684021 -7.026858 39.000000
Cu -2.171418 -4.026031 -7.856266 39.000000
Cu -6.514255 1.342010 -6.197450 39.000000
Cu -4.342837 0.000000 -7.026858 30.000000
Cu -2.171418 -1.342010 -7.856266 30.000000
Cu -4.342837 2.684021 -7.026858 39.000000
Cu -2.171418 1.342010 -7.856266 30.000000
Cu -2.171418 4.026031 -7.856266 39.000000
Cu 6.197450 6.514255 -1.342010 39.000000
Cu 7.026858 4.342837 -2.684021 39.000000
Cu 7.856266 2.171418 -4.026031 39.000000
Cu 6.197450 6.514255 1.342010 39.000000
Cu 7.026858 4.342837 0.000000 30.000000
Cu 7.856266 2.171418 -1.342010 30.000000
Cu 7.026858 4.342837 2.684021 39.000000
Cu 7.856266 2.171418 1.342010 30.000000
Cu 7.856266 2.171418 4.026031 39.000000
Cu -6.197450 6.514255 -1.342010 39.000000
Cu -7.026858 4.342837 -2.684021 39.000000
Cu -7.856266 2.171418 -4.026031 39.000000
Cu -6.197450 6.514255 1.342010 39.000000
Cu -7.026858 4.342837 0.000000 30.000000
Cu -7.856266 2.171418 -1.342010 30.000000
Cu -7.026858 4.342837 2.684021 39.000000
Cu -7.856266 2.171418 1.342010 30.000000
Cu -7.856266 2.171418 4.026031 39.000000
Cu 6.197450 -6.514255 -1.342010 39.000000
Cu 7.026858 -4.342837 -2.684021 39.000000
Cu 7.856266 -2.171418 -4.026031 39.000000
Cu 6.197450 -6.514255 1.342010 39.000000
Cu 7.026858 -4.342837 0.000000 30.000000
Cu 7.856266 -2.171418 -1.342010 30.000000
Cu 7.026858 -4.342837 2.684021 39.000000
Cu 7.856266 -2.171418 1.342010 30.000000
Cu 7.856266 -2.171418 4.026031 39.000000
Cu -6.197450 -6.514255 -1.342010 39.000000
Cu -7.026858 -4.342837 -2.684021 39.000000
Cu -7.856266 -2.171418 -4.026031 39.000000
Cu -6.197450 -6.514255 1.342010 39.000000
Cu -7.026858 -4.342837 0.000000 30.000000
Cu -7.856266 -2.171418 -1.342010 30.000000
Cu -7.026858 -4.342837 2.684021 39.000000
Cu -7.856266 -2.171418 1.342010 30.000000
Cu -7.856266 -2.171418 4.026031 39.000000
Cu -1.342010 6.197450 6.514255 39.000000
Cu -2.684021 7.026858 4.342837 39.000000
Cu -4.026031 7.856266 2.171418 39.000000
Cu 1.342010 6.197450 6.514255 39.000000
Cu 0.000000 7.026858 4.342837 30.000000
Cu -1.342010 7.856266 2.171418 30.000000
Cu 2.684021 7.026858 4.342837 39.000000
Cu 1.342010 7.856266 2.171418 30.000000
Cu 4.026031 7.856266 2.171418 39.000000
Cu -1.342010 -6.197450 6.514255 39.000000
Cu -2.684021 -7.026858 4.342837 39.000000
Cu -4.026031 -7.856266 2.171418 39.000000
Cu 1.342010 -6.197450 6.514255 39.000000
Cu 0.000000 -7.026858 4.342837 30.000000
Cu -1.342010 -7.856266 2.171418 30.000000
Cu 2.684021 -7.026858 4.342837 39.000000
Cu 1.342010 -7.856266 2.171418 30.000000
Cu 4.026031 -7.856266 2.171418 39.000000
Cu -1.342010 6.197450 -6.514255 39.000000
Cu -2.684021 7.026858 -4.342837 39.000000
Cu -4.026031 7.856266 -2.171418 39.000000
Cu 1.342010 6.197450 -6.514255 39.000000
Cu 0.000000 7.026858 -4.342837 30.000000
Cu -1.342010 7.856266 -2.171418 30.000000
Cu 2.684021 7.026858 -4.342837 39.000000
Cu 1.342010 7.856266 -2.171418 30.000000
Cu 4.026031 7.856266 -2.171418 39.000000
Cu -1.342010 -6.197450 -6.514255 39.000000
Cu -2.684021 -7.026858 -4.342837 39.000000
Cu -4.026031 -7.856266 -2.171418 39.000000
Cu 1.342010 -6.197450 -6.514255 39.000000
Cu 0.000000 -7.026858 -4.342837 30.000000
Cu -1.342010 -7.856266 -2.171418 30.000000
Cu 2.684021 -7.026858 -4.342837 39.000000
Cu 1.342010 -7.856266 -2.171418 30.000000
Cu 4.026031 -7.856266 -2.171418 39.000000
Cu 5.684847 -3.513429 4.855439 30.000000
Cu 5.684847 3.513429 4.855439 30.000000
Cu 4.855439 -5.684847 3.513429 30.000000
Cu 4.855439 5.684847 3.513429 30.000000
Cu 3.513429 -4.855439 5.684847 30.000000
Cu 3.513429 4.855439 5.684847 30.000000
Cu 5.684847 -3.513429 -4.855439 30.000000
Cu 5.684847 3.513429 -4.855439 30.000000
Cu 4.855439 -5.684847 -3.513429 30.000000
Cu 4.855439 5.684847 -3.513429 30.000000
Cu 3.513429 -4.855439 -5.684847 30.000000
Cu 3.513429 4.855439 -5.684847 30.000000
Cu -5.684847 -3.513429 4.855439 30.000000
Cu -5.684847 3.513429 4.855439 30.000000
Cu -4.855439 -5.684847 3.513429 30.000000
Cu -4.855439 5.684847 3.513429 30.000000
Cu -3.513429 -4.855439 5.684847 30.000000
Cu -3.513429 4.855439 5.684847 30.000000
Cu -5.684847 -3.513429 -4.855439 30.000000
Cu -5.684847 3.513429 -4.855439 30.000000
Cu -4.855439 -5.684847 -3.513429 30.000000
Cu -4.855439 5.684847 -3.513429 30.000000
Cu -3.513429 -4.855439 -5.684847 30.000000
Cu -3.513429 4.855439 -5.684847 30.000000
